c *********************************
c * Circuit generated by BenCGen
c *
c * Parity_86
c *
c * Ports with 1 gate(s): 1
c * Ports with 2 gate(s): 86
c * Total gates: 87
c *********************************
p cnf 173 345
1 89 0
-1 -89 0
1 -88 0
89 -88 0
-1 -89 88 0
1 2 -90 0
-1 2 90 0
1 -2 90 0
-1 -2 -90 0
3 4 -91 0
-3 4 91 0
3 -4 91 0
-3 -4 -91 0
5 6 -92 0
-5 6 92 0
5 -6 92 0
-5 -6 -92 0
7 8 -93 0
-7 8 93 0
7 -8 93 0
-7 -8 -93 0
9 10 -94 0
-9 10 94 0
9 -10 94 0
-9 -10 -94 0
11 12 -95 0
-11 12 95 0
11 -12 95 0
-11 -12 -95 0
13 14 -96 0
-13 14 96 0
13 -14 96 0
-13 -14 -96 0
15 16 -97 0
-15 16 97 0
15 -16 97 0
-15 -16 -97 0
17 18 -98 0
-17 18 98 0
17 -18 98 0
-17 -18 -98 0
19 20 -99 0
-19 20 99 0
19 -20 99 0
-19 -20 -99 0
21 22 -100 0
-21 22 100 0
21 -22 100 0
-21 -22 -100 0
23 24 -101 0
-23 24 101 0
23 -24 101 0
-23 -24 -101 0
25 26 -102 0
-25 26 102 0
25 -26 102 0
-25 -26 -102 0
27 28 -103 0
-27 28 103 0
27 -28 103 0
-27 -28 -103 0
29 30 -104 0
-29 30 104 0
29 -30 104 0
-29 -30 -104 0
31 32 -105 0
-31 32 105 0
31 -32 105 0
-31 -32 -105 0
33 34 -106 0
-33 34 106 0
33 -34 106 0
-33 -34 -106 0
35 36 -107 0
-35 36 107 0
35 -36 107 0
-35 -36 -107 0
37 38 -108 0
-37 38 108 0
37 -38 108 0
-37 -38 -108 0
39 40 -109 0
-39 40 109 0
39 -40 109 0
-39 -40 -109 0
41 42 -110 0
-41 42 110 0
41 -42 110 0
-41 -42 -110 0
43 44 -111 0
-43 44 111 0
43 -44 111 0
-43 -44 -111 0
45 46 -112 0
-45 46 112 0
45 -46 112 0
-45 -46 -112 0
47 48 -113 0
-47 48 113 0
47 -48 113 0
-47 -48 -113 0
49 50 -114 0
-49 50 114 0
49 -50 114 0
-49 -50 -114 0
51 52 -115 0
-51 52 115 0
51 -52 115 0
-51 -52 -115 0
53 54 -116 0
-53 54 116 0
53 -54 116 0
-53 -54 -116 0
55 56 -117 0
-55 56 117 0
55 -56 117 0
-55 -56 -117 0
57 58 -118 0
-57 58 118 0
57 -58 118 0
-57 -58 -118 0
59 60 -119 0
-59 60 119 0
59 -60 119 0
-59 -60 -119 0
61 62 -120 0
-61 62 120 0
61 -62 120 0
-61 -62 -120 0
63 64 -121 0
-63 64 121 0
63 -64 121 0
-63 -64 -121 0
65 66 -122 0
-65 66 122 0
65 -66 122 0
-65 -66 -122 0
67 68 -123 0
-67 68 123 0
67 -68 123 0
-67 -68 -123 0
69 70 -124 0
-69 70 124 0
69 -70 124 0
-69 -70 -124 0
71 72 -125 0
-71 72 125 0
71 -72 125 0
-71 -72 -125 0
73 74 -126 0
-73 74 126 0
73 -74 126 0
-73 -74 -126 0
75 76 -127 0
-75 76 127 0
75 -76 127 0
-75 -76 -127 0
77 78 -128 0
-77 78 128 0
77 -78 128 0
-77 -78 -128 0
79 80 -129 0
-79 80 129 0
79 -80 129 0
-79 -80 -129 0
81 82 -130 0
-81 82 130 0
81 -82 130 0
-81 -82 -130 0
83 84 -131 0
-83 84 131 0
83 -84 131 0
-83 -84 -131 0
85 86 -132 0
-85 86 132 0
85 -86 132 0
-85 -86 -132 0
90 91 -133 0
-90 91 133 0
90 -91 133 0
-90 -91 -133 0
92 93 -134 0
-92 93 134 0
92 -93 134 0
-92 -93 -134 0
94 95 -135 0
-94 95 135 0
94 -95 135 0
-94 -95 -135 0
96 97 -136 0
-96 97 136 0
96 -97 136 0
-96 -97 -136 0
98 99 -137 0
-98 99 137 0
98 -99 137 0
-98 -99 -137 0
100 101 -138 0
-100 101 138 0
100 -101 138 0
-100 -101 -138 0
102 103 -139 0
-102 103 139 0
102 -103 139 0
-102 -103 -139 0
104 105 -140 0
-104 105 140 0
104 -105 140 0
-104 -105 -140 0
106 107 -141 0
-106 107 141 0
106 -107 141 0
-106 -107 -141 0
108 109 -142 0
-108 109 142 0
108 -109 142 0
-108 -109 -142 0
110 111 -143 0
-110 111 143 0
110 -111 143 0
-110 -111 -143 0
112 113 -144 0
-112 113 144 0
112 -113 144 0
-112 -113 -144 0
114 115 -145 0
-114 115 145 0
114 -115 145 0
-114 -115 -145 0
116 117 -146 0
-116 117 146 0
116 -117 146 0
-116 -117 -146 0
118 119 -147 0
-118 119 147 0
118 -119 147 0
-118 -119 -147 0
120 121 -148 0
-120 121 148 0
120 -121 148 0
-120 -121 -148 0
122 123 -149 0
-122 123 149 0
122 -123 149 0
-122 -123 -149 0
124 125 -150 0
-124 125 150 0
124 -125 150 0
-124 -125 -150 0
126 127 -151 0
-126 127 151 0
126 -127 151 0
-126 -127 -151 0
128 129 -152 0
-128 129 152 0
128 -129 152 0
-128 -129 -152 0
130 131 -153 0
-130 131 153 0
130 -131 153 0
-130 -131 -153 0
133 134 -154 0
-133 134 154 0
133 -134 154 0
-133 -134 -154 0
135 136 -155 0
-135 136 155 0
135 -136 155 0
-135 -136 -155 0
137 138 -156 0
-137 138 156 0
137 -138 156 0
-137 -138 -156 0
139 140 -157 0
-139 140 157 0
139 -140 157 0
-139 -140 -157 0
141 142 -158 0
-141 142 158 0
141 -142 158 0
-141 -142 -158 0
143 144 -159 0
-143 144 159 0
143 -144 159 0
-143 -144 -159 0
145 146 -160 0
-145 146 160 0
145 -146 160 0
-145 -146 -160 0
147 148 -161 0
-147 148 161 0
147 -148 161 0
-147 -148 -161 0
149 150 -162 0
-149 150 162 0
149 -150 162 0
-149 -150 -162 0
151 152 -163 0
-151 152 163 0
151 -152 163 0
-151 -152 -163 0
153 132 -164 0
-153 132 164 0
153 -132 164 0
-153 -132 -164 0
154 155 -165 0
-154 155 165 0
154 -155 165 0
-154 -155 -165 0
156 157 -166 0
-156 157 166 0
156 -157 166 0
-156 -157 -166 0
158 159 -167 0
-158 159 167 0
158 -159 167 0
-158 -159 -167 0
160 161 -168 0
-160 161 168 0
160 -161 168 0
-160 -161 -168 0
162 163 -169 0
-162 163 169 0
162 -163 169 0
-162 -163 -169 0
165 166 -170 0
-165 166 170 0
165 -166 170 0
-165 -166 -170 0
167 168 -171 0
-167 168 171 0
167 -168 171 0
-167 -168 -171 0
169 164 -172 0
-169 164 172 0
169 -164 172 0
-169 -164 -172 0
170 171 -173 0
-170 171 173 0
170 -171 173 0
-170 -171 -173 0
173 172 -87 0
-173 172 87 0
173 -172 87 0
-173 -172 -87 0
